color_target = [| <>, <>, <>, <>, <>, 
				| <>, <>, <>, <>, 1 , 
				| <>, <>, <>, 1,  0 , 
				| <>, <>, 1,  0,  <>|];

number_target = [| 3,  4,  1,  5,  <>,
				 | <>, 6,  2,  <>, <>,
				 | <>, <>, <>, <>, <>,
				 | 5 , <>, <>, <>,  6|];
